NAME : Random_ATSP_Instance
TYPE : ATSP
DIMENSION : 15
EDGE_WEIGHT_TYPE : EXPLICIT
EDGE_WEIGHT_FORMAT : FULL_MATRIX
NODE_COORD_TYPE : NO_COORDS
DISPLAY_DATA_TYPE: TWOD_DISPLAY
EDGE_WEIGHT_SECTION
970299 970299 970299 970299 47 970299 970299 19 970299 970299 35 970299 970299 4 970299
970299 970299 970299 970299 970299 54 98 970299 970299 59 81 970299 970299 970299 970299
970299 970299 970299 970299 970299 50 970299 970299 93 970299 970299 970299 970299 970299 970299
29 970299 28 970299 970299 970299 970299 970299 970299 36 970299 66 970299 6 970299
970299 970299 970299 970299 970299 36 970299 970299 970299 970299 970299 7 9 970299 970299
970299 970299 69 970299 970299 970299 970299 82 970299 970299 970299 58 53 970299 970299
19 24 65 970299 57 970299 970299 970299 970299 970299 970299 970299 970299 47 970299
970299 970299 970299 970299 970299 18 970299 970299 970299 7 50 970299 970299 970299 970299
15 970299 970299 98 970299 970299 970299 970299 970299 970299 970299 970299 60 970299 970299
970299 970299 970299 43 970299 970299 970299 970299 970299 970299 970299 970299 970299 970299 970299
970299 970299 970299 49 60 970299 970299 970299 970299 970299 970299 970299 970299 970299 48
970299 75 970299 970299 49 970299 970299 970299 19 27 970299 970299 970299 970299 970299
970299 970299 60 970299 21 970299 970299 970299 970299 970299 970299 970299 970299 970299 970299
970299 970299 970299 970299 970299 92 970299 11 970299 4 970299 970299 78 970299 970299
970299 970299 970299 970299 970299 970299 4 970299 970299 970299 96 970299 970299 970299 970299
EOF
